320886.0
3420
5 6 7 10 11 12 13 14 16 17 18 19 20 21 22 25 26 27 28 29 30 31 32 33 34 35 36 37 38 39 41 42 43 44 45 46 47 48 49 50 52 54 55 56 59 60 61 62 63 64 65 66 67 70 71 72 73 74 75 76 77 78 79 81 82 85 89 93 94 95 96 97 101 104 105 106 107 108 109 110 111 112 113 116 118 120 121 122 124 126 128 129 131 132 133 134 135 136 137 138 139 140 141 142 143 147 148 149 150 151 152 154 156 158 159 161 162 163 165 166 167 168 171 172 173 174 175 176 177 180 181 182 184 185 187 189 190 191 192 193 194 196 